c 
c G(k,n,p) graph
c graph gen seed     : 332471
c number of vertices : 70
c max number of edges: 1225
c number of classes  : 2
c edge density       : 0.400000
c edge probability   : 0.800000
c data structure     : dense
c
c           Graph Stats
c number of vertices  : 70
c nonisolated vertices: 70
c number of edges     : 961
c edge density        : 0.397930
c max degree          : 35
c avg degree          : 27.46
c min degree          : 21
p col 70 961
e 1 3
e 1 9
e 1 13
e 1 16
e 1 18
e 1 19
e 1 20
e 1 21
e 1 23
e 1 24
e 1 26
e 1 31
e 1 33
e 1 34
e 1 35
e 1 36
e 1 37
e 1 40
e 1 42
e 1 44
e 1 46
e 1 49
e 1 51
e 1 52
e 1 57
e 1 60
e 1 62
e 1 64
e 1 66
e 1 67
e 2 3
e 2 11
e 2 13
e 2 16
e 2 18
e 2 19
e 2 20
e 2 23
e 2 24
e 2 26
e 2 31
e 2 33
e 2 34
e 2 37
e 2 40
e 2 41
e 2 42
e 2 44
e 2 51
e 2 57
e 2 60
e 2 64
e 2 66
e 2 67
e 3 4
e 3 5
e 3 6
e 3 7
e 3 8
e 3 12
e 3 14
e 3 22
e 3 27
e 3 28
e 3 29
e 3 30
e 3 32
e 3 38
e 3 39
e 3 47
e 3 48
e 3 50
e 3 53
e 3 54
e 3 58
e 3 59
e 3 61
e 3 63
e 3 65
e 3 68
e 3 69
e 4 9
e 4 11
e 4 18
e 4 19
e 4 20
e 4 21
e 4 23
e 4 24
e 4 26
e 4 31
e 4 33
e 4 34
e 4 35
e 4 37
e 4 40
e 4 41
e 4 44
e 4 46
e 4 49
e 4 51
e 4 52
e 4 57
e 4 60
e 4 62
e 4 64
e 4 66
e 5 9
e 5 11
e 5 13
e 5 16
e 5 18
e 5 19
e 5 20
e 5 23
e 5 24
e 5 26
e 5 31
e 5 33
e 5 35
e 5 37
e 5 40
e 5 41
e 5 44
e 5 49
e 5 51
e 5 52
e 5 57
e 5 60
e 5 62
e 5 64
e 5 67
e 6 9
e 6 11
e 6 13
e 6 18
e 6 19
e 6 21
e 6 23
e 6 24
e 6 26
e 6 31
e 6 33
e 6 34
e 6 35
e 6 36
e 6 37
e 6 40
e 6 41
e 6 42
e 6 44
e 6 46
e 6 51
e 6 52
e 6 60
e 6 62
e 6 64
e 6 66
e 6 67
e 7 9
e 7 11
e 7 13
e 7 16
e 7 19
e 7 21
e 7 23
e 7 24
e 7 26
e 7 31
e 7 34
e 7 35
e 7 36
e 7 37
e 7 40
e 7 41
e 7 42
e 7 44
e 7 46
e 7 49
e 7 52
e 7 57
e 7 60
e 7 62
e 7 64
e 7 66
e 7 67
e 8 9
e 8 13
e 8 18
e 8 19
e 8 20
e 8 21
e 8 23
e 8 24
e 8 26
e 8 31
e 8 33
e 8 34
e 8 35
e 8 36
e 8 37
e 8 40
e 8 41
e 8 42
e 8 44
e 8 46
e 8 49
e 8 51
e 8 52
e 8 60
e 8 62
e 8 64
e 9 12
e 9 14
e 9 15
e 9 17
e 9 22
e 9 25
e 9 27
e 9 28
e 9 29
e 9 30
e 9 32
e 9 38
e 9 39
e 9 43
e 9 45
e 9 47
e 9 48
e 9 50
e 9 53
e 9 54
e 9 55
e 9 56
e 9 59
e 9 61
e 9 63
e 9 65
e 9 68
e 9 69
e 9 70
e 10 11
e 10 13
e 10 18
e 10 19
e 10 20
e 10 21
e 10 23
e 10 24
e 10 26
e 10 31
e 10 33
e 10 34
e 10 36
e 10 37
e 10 40
e 10 41
e 10 42
e 10 44
e 10 46
e 10 49
e 10 51
e 10 57
e 10 62
e 10 64
e 10 66
e 11 14
e 11 15
e 11 17
e 11 22
e 11 25
e 11 27
e 11 29
e 11 30
e 11 32
e 11 39
e 11 43
e 11 45
e 11 47
e 11 48
e 11 50
e 11 54
e 11 55
e 11 56
e 11 59
e 11 61
e 11 65
e 11 68
e 11 70
e 12 16
e 12 18
e 12 20
e 12 21
e 12 23
e 12 31
e 12 33
e 12 35
e 12 36
e 12 37
e 12 40
e 12 41
e 12 42
e 12 44
e 12 46
e 12 49
e 12 51
e 12 52
e 12 57
e 12 60
e 12 62
e 12 64
e 12 66
e 12 67
e 13 14
e 13 15
e 13 17
e 13 25
e 13 27
e 13 28
e 13 29
e 13 32
e 13 38
e 13 43
e 13 45
e 13 47
e 13 50
e 13 53
e 13 55
e 13 56
e 13 58
e 13 59
e 13 61
e 13 65
e 13 68
e 13 69
e 13 70
e 14 16
e 14 18
e 14 19
e 14 21
e 14 23
e 14 24
e 14 26
e 14 31
e 14 33
e 14 36
e 14 37
e 14 40
e 14 41
e 14 44
e 14 46
e 14 51
e 14 52
e 14 57
e 14 60
e 14 62
e 14 66
e 14 67
e 15 16
e 15 18
e 15 19
e 15 20
e 15 21
e 15 23
e 15 24
e 15 26
e 15 33
e 15 35
e 15 36
e 15 37
e 15 41
e 15 44
e 15 46
e 15 49
e 15 51
e 15 57
e 15 60
e 15 66
e 16 22
e 16 25
e 16 27
e 16 29
e 16 30
e 16 32
e 16 39
e 16 45
e 16 47
e 16 48
e 16 50
e 16 53
e 16 54
e 16 58
e 16 59
e 16 61
e 16 63
e 16 70
e 17 18
e 17 20
e 17 21
e 17 23
e 17 24
e 17 26
e 17 31
e 17 34
e 17 37
e 17 40
e 17 41
e 17 44
e 17 46
e 17 49
e 17 51
e 17 52
e 17 60
e 17 62
e 17 64
e 17 66
e 18 22
e 18 27
e 18 28
e 18 29
e 18 30
e 18 32
e 18 38
e 18 43
e 18 45
e 18 47
e 18 48
e 18 50
e 18 53
e 18 54
e 18 55
e 18 56
e 18 58
e 18 59
e 18 63
e 18 68
e 18 69
e 18 70
e 19 22
e 19 25
e 19 27
e 19 28
e 19 29
e 19 30
e 19 32
e 19 39
e 19 43
e 19 45
e 19 47
e 19 48
e 19 50
e 19 53
e 19 54
e 19 55
e 19 56
e 19 58
e 19 61
e 19 63
e 19 65
e 19 68
e 19 70
e 20 22
e 20 27
e 20 28
e 20 29
e 20 38
e 20 43
e 20 45
e 20 47
e 20 48
e 20 50
e 20 53
e 20 54
e 20 55
e 20 56
e 20 59
e 20 61
e 20 63
e 20 68
e 20 70
e 21 22
e 21 25
e 21 28
e 21 29
e 21 30
e 21 38
e 21 39
e 21 43
e 21 45
e 21 47
e 21 48
e 21 50
e 21 53
e 21 54
e 21 55
e 21 59
e 21 63
e 21 65
e 21 68
e 21 70
e 22 24
e 22 26
e 22 33
e 22 34
e 22 36
e 22 40
e 22 42
e 22 46
e 22 49
e 22 51
e 22 57
e 22 60
e 22 64
e 22 66
e 22 67
e 23 25
e 23 27
e 23 28
e 23 29
e 23 30
e 23 32
e 23 38
e 23 39
e 23 43
e 23 45
e 23 47
e 23 48
e 23 50
e 23 53
e 23 54
e 23 56
e 23 58
e 23 59
e 23 61
e 23 69
e 23 70
e 24 25
e 24 27
e 24 28
e 24 29
e 24 38
e 24 39
e 24 43
e 24 45
e 24 48
e 24 50
e 24 53
e 24 54
e 24 56
e 24 58
e 24 59
e 24 63
e 24 68
e 24 69
e 24 70
e 25 26
e 25 34
e 25 35
e 25 37
e 25 41
e 25 42
e 25 44
e 25 46
e 25 49
e 25 51
e 25 52
e 25 60
e 25 67
e 26 27
e 26 28
e 26 29
e 26 30
e 26 32
e 26 38
e 26 39
e 26 45
e 26 48
e 26 50
e 26 53
e 26 55
e 26 56
e 26 58
e 26 59
e 26 61
e 26 63
e 26 65
e 26 68
e 26 69
e 26 70
e 27 31
e 27 33
e 27 34
e 27 36
e 27 37
e 27 40
e 27 41
e 27 42
e 27 44
e 27 49
e 27 52
e 27 57
e 27 64
e 27 66
e 27 67
e 28 31
e 28 33
e 28 34
e 28 35
e 28 36
e 28 37
e 28 40
e 28 42
e 28 44
e 28 46
e 28 57
e 28 64
e 28 66
e 28 67
e 29 31
e 29 33
e 29 34
e 29 36
e 29 40
e 29 41
e 29 42
e 29 44
e 29 49
e 29 51
e 29 52
e 29 57
e 29 60
e 29 62
e 29 64
e 29 67
e 30 31
e 30 33
e 30 34
e 30 35
e 30 40
e 30 41
e 30 42
e 30 46
e 30 49
e 30 52
e 30 57
e 30 60
e 30 62
e 30 67
e 31 38
e 31 39
e 31 43
e 31 45
e 31 47
e 31 48
e 31 50
e 31 54
e 31 55
e 31 56
e 31 58
e 31 59
e 31 61
e 31 63
e 31 65
e 31 68
e 31 69
e 31 70
e 32 33
e 32 35
e 32 36
e 32 37
e 32 40
e 32 41
e 32 42
e 32 44
e 32 46
e 32 51
e 32 57
e 32 60
e 32 62
e 32 64
e 32 66
e 32 67
e 33 38
e 33 39
e 33 43
e 33 45
e 33 47
e 33 50
e 33 53
e 33 55
e 33 58
e 33 59
e 33 61
e 33 65
e 33 68
e 33 69
e 33 70
e 34 38
e 34 43
e 34 47
e 34 48
e 34 50
e 34 53
e 34 54
e 34 55
e 34 56
e 34 58
e 34 59
e 34 68
e 34 69
e 34 70
e 35 38
e 35 45
e 35 47
e 35 50
e 35 53
e 35 55
e 35 56
e 35 58
e 35 59
e 35 61
e 35 63
e 35 65
e 35 68
e 35 70
e 36 38
e 36 39
e 36 43
e 36 45
e 36 47
e 36 48
e 36 53
e 36 54
e 36 55
e 36 58
e 36 59
e 36 61
e 36 63
e 36 65
e 36 68
e 36 69
e 36 70
e 37 38
e 37 39
e 37 43
e 37 48
e 37 50
e 37 53
e 37 54
e 37 55
e 37 58
e 37 59
e 37 61
e 37 63
e 37 68
e 37 69
e 38 40
e 38 41
e 38 42
e 38 46
e 38 51
e 38 52
e 38 57
e 38 62
e 38 64
e 38 66
e 38 67
e 39 40
e 39 41
e 39 42
e 39 44
e 39 46
e 39 49
e 39 51
e 39 52
e 39 57
e 39 60
e 39 62
e 39 64
e 39 66
e 39 67
e 40 45
e 40 48
e 40 50
e 40 53
e 40 54
e 40 56
e 40 58
e 40 59
e 40 63
e 40 65
e 40 68
e 40 69
e 40 70
e 41 43
e 41 47
e 41 48
e 41 53
e 41 54
e 41 55
e 41 56
e 41 58
e 41 59
e 41 61
e 41 63
e 41 65
e 41 68
e 41 69
e 42 43
e 42 47
e 42 48
e 42 53
e 42 54
e 42 55
e 42 56
e 42 58
e 42 59
e 42 61
e 42 68
e 42 69
e 42 70
e 43 46
e 43 49
e 43 60
e 43 62
e 43 66
e 43 67
e 44 45
e 44 47
e 44 48
e 44 50
e 44 53
e 44 54
e 44 58
e 44 59
e 44 65
e 44 68
e 44 70
e 45 51
e 45 52
e 45 57
e 45 60
e 45 62
e 45 66
e 45 67
e 46 50
e 46 53
e 46 54
e 46 55
e 46 56
e 46 58
e 46 59
e 46 68
e 46 69
e 46 70
e 47 49
e 47 52
e 47 57
e 47 60
e 47 62
e 47 64
e 47 66
e 47 67
e 48 49
e 48 51
e 48 52
e 48 62
e 48 64
e 48 66
e 49 50
e 49 53
e 49 55
e 49 56
e 49 58
e 49 59
e 49 61
e 49 63
e 49 65
e 49 68
e 49 69
e 49 70
e 50 51
e 50 52
e 50 57
e 50 62
e 50 66
e 50 67
e 51 53
e 51 54
e 51 58
e 51 59
e 51 65
e 51 68
e 51 69
e 52 54
e 52 55
e 52 58
e 52 59
e 52 61
e 52 63
e 52 68
e 52 69
e 52 70
e 53 57
e 53 60
e 53 64
e 53 66
e 54 62
e 54 64
e 54 67
e 55 57
e 55 62
e 55 64
e 55 66
e 55 67
e 56 57
e 56 60
e 56 62
e 56 64
e 56 66
e 56 67
e 57 58
e 57 59
e 57 61
e 57 63
e 57 65
e 57 68
e 57 69
e 57 70
e 58 60
e 58 64
e 58 66
e 58 67
e 59 60
e 59 64
e 59 66
e 59 67
e 60 61
e 60 65
e 60 70
e 61 62
e 61 64
e 61 66
e 61 67
e 62 63
e 62 65
e 62 68
e 62 69
e 62 70
e 63 64
e 63 66
e 64 65
e 64 68
e 64 70
e 65 66
e 65 67
e 66 68
e 66 70
e 67 68
e 67 69
e 67 70
